
 102   30
  10   10   10   10   10   10   10   10   10   10   10   10   10   10   10   10   10   10   10   10   10   10   10   10   10   10   10   10   10   10

   0   0   0   0   0   0   0   0   0   0   0   0   0   0   0   0   0   0   0   0   0   0   0   0   0   0   0   0   0   0   0  22 2 3 4 5 6 7 8 9 10 11 12 13 14 15 17 19 21 22 23 27 30 36 
   3   0   0   1   1   0   0   0   0   0   0   0   0   3   0   1   0   0   0   0   0   0   0   0   0   0   0   0   0   0   1  16 101 60 53 49 47 44 39 38 37 33 32 29 26 25 24 18 
   9   1   0   7   0   0   0   0   0   0   0   0   1   0   0   0   0   0   0   0   0   0   0   0   1   0   0   0   0   1   0  15 101 99 98 64 59 57 55 51 48 47 44 41 34 25 16 
   3   0   0   0   6   1   0   0   0   0   0   0   0   0   1   0   0   0   0   0   0   0   0   2   0   1   0   0   0   0   0  12 101 100 52 50 47 46 39 35 33 29 26 20 
   1   0   0   0   0   0   0   0   0   0   0   0   0   0   0   0   2   1   0   0   0   0   0   0   0   8   0   0   0   0   0  15 99 63 59 58 57 56 55 54 50 47 46 45 40 28 16 
   5   0   0   6   0   0   0   1   1   0   0   0   0   0   0   7   0   0   0   0   0   0   0   0   0   5   0   0   1   0   0  22 92 68 65 64 62 60 59 57 55 54 53 52 51 50 47 46 42 41 39 37 32 31 
   7   0   0   0   0   0   0   0   8   0   1   0   4   6   0   0   0   0   0   0   0   0   0   0   0   0   1   0   0   0   0  19 101 99 98 95 71 70 65 59 55 54 51 47 43 42 38 37 35 34 32 
   2   0   0   0   0   0   1   0   0   0   0   0   0   0   0   0   0   0   0   0   1   0   0   0   0   0   0   0   0   0   0  17 101 98 70 69 68 63 62 61 60 59 58 56 46 43 39 37 33 
   2   0   0   0   0   0   0   0   0   0   0   0   0   0   0   0   0   0   0   0   0   0   0   0   0   0   0   0   6   0   0  22 101 99 98 97 95 93 91 90 87 71 70 69 68 67 64 63 62 60 54 53 47 43 
   5   4   0   0   0   8   0   0   0   0   0   0   0   0   0   0   0   0   0   0   0   1   0   0   0   0   0   0   0   0   0  11 101 96 90 66 62 61 56 51 45 43 26 
   4   0   0   0   0   0   0   4   0   0   6   0   0   0   0   0   8   0   2   0   0   7   0   0   0   0   0   0   0  10   0  10 94 71 62 59 58 54 43 39 37 28 
   7   0   0   0   0   0   0   0   0   0   0   0   0   0   0   0   0   8   0   0   0   0   4   0   0   0   0   0   0   0   0  21 101 100 99 98 97 96 94 92 91 89 88 70 68 65 61 57 56 54 51 50 41 
   7   0   0   0   0   0   0   0   0   0   0   0   2   0   4   0   0   0   0   0   0   0   5   0   0   5   3   0   0   0   0  13 100 99 96 93 70 65 63 61 58 54 48 37 33 
   6   0   0   0   0   0   0   0   0   0   5   0   0   0   0   0   0   0   5   6   0   0   0   6   0   0   0   0   0   0   0  11 98 70 69 65 63 58 56 43 39 37 35 
   8   0   0   0   0   0   7   0   0   0   0   0   0   0   0   0   0   0   0   0   2   0   0   0   0   0   0   0   0   0   0  14 100 99 91 89 70 63 62 61 58 50 47 43 41 39 
   7   0   0   0   0   0   0   0   0   0   0   0   0   0   0   0   0   0   0   0   0   0   0   4   0   0   9   0   0   0   0  13 95 94 93 91 71 70 69 68 65 61 43 39 37 
   4   0   0   0   0   8   0   0   0   0   0   0   0   0   0   0   0   0   0   0   0   8   0   0   0   0   0   2   0   0   8  13 99 97 93 88 87 71 65 64 63 59 58 45 42 
   1   0   0   0   0   0   8   0   0   0   0   1   6   0   0   6   0   0   7   0   0   0   0   0   0   0   0   0   0   0   0  17 100 98 97 93 90 83 77 68 67 66 64 63 62 56 50 43 42 
   3   0   0   7   0   0   0   0   0   0   0   0   0   0   0   4   0   0   0   0   0   0   0   0   0   0   0   0   0   0   0  15 97 95 90 83 77 70 68 67 64 62 61 56 50 43 38 
   6   5   0   0   3   0   0   0   9   0   0   0   0   0   0   0   0   5   0   0   0   0   0   0   0   0   9   0   0   0   0  21 98 95 94 93 91 90 88 87 85 84 81 79 71 70 67 66 64 62 61 55 54 
   5   0   0   0   0   0   0   0   0   0   0   0   2   0   0   0   0   0   0   0   0   0   0   0   0   0   0   5   0   0   0  13 97 95 93 91 90 83 77 68 64 62 61 43 38 
   1   0   0   0   0   0   0   0   0   0   0   0   0   0   0   7   0   0   0   0   0   0   0   6   0   0   0   0   9   0   7  20 95 94 92 91 90 89 87 86 83 80 77 76 74 70 67 66 61 59 57 56 
   4   0   0   0   0   0   0   0   0   0   0   7   0   0   0   0  10   0   0   0   0   0   0   0   0   0   0   0   0   7   5  20 99 98 97 92 91 90 88 87 84 82 81 79 77 75 74 68 64 62 59 58 
   5   0   0   5   0   0   0   8   6   0   0   0   0   0   0   5   0   0   0   5   0   0   5   0   0   0   0   0   0   0   0  17 97 91 90 88 87 84 81 71 70 69 67 66 65 64 61 59 54 
   8   0   0   0   0   0   0   8   0   0   0   7   6   0   0   0   0   0   0   6   0   0   0   0   0   0   0   0   0   0   6  12 94 92 90 88 79 74 66 65 62 61 50 46 
   3  10   0   0   0   3   0   0   0   0   0   0   0   0   0   0   0   0   5   0   0   0   0   0   5   0   0   0   7   0   0  14 98 95 88 87 85 84 81 69 67 65 64 63 57 55 
   2   0   0   0   0   0   6   0   0   0   0   0   0   0   0   0   0   0   0   4   0   0   2   0   0   0   0   0   0   0   0  12 99 94 93 85 84 83 71 68 63 62 46 42 
   9   7   0   0   0   0   8   0   0   0   0   0   7   0   0   9   0   0   0   0   0   0   0   0   0   0   0   4   0   0   0  15 96 95 93 92 90 88 86 85 84 83 82 69 68 53 42 
   9   0   0   0   7   0   0   0   0   0   0   7   0   0   0   0   0   0   0   2   0   0   0   0   0   0   0   0   0   0   0  14 99 96 94 92 83 80 78 75 71 68 66 61 56 51 
   7   0   0   0   4   0   0   0   0   0   0   0   0   0   0   0   0   0   0   0   0   0   0   0   0   0   3   0   0   0   0  14 95 94 90 88 80 76 74 71 70 69 67 61 56 47 
   2   0   0   7   3   5   0   0   0   1   0   0   0   3   0   0   0   0   5   0   0   0   0   0   0   0   9   0   0   0   0  19 99 96 94 91 90 88 87 86 85 83 82 78 75 73 71 70 67 66 63 
   4   0   1   0   0   0   3   0   0   0   0  10   0   0   0   0   0   0   0   0   0   0   0   0   0   0   0   0   0   0   0  17 97 93 90 88 86 85 84 83 81 80 77 75 73 69 67 66 63 
   5   0   0   0   0   0   0   0   0   0   0   0   0   0   0   0   0   0   0   0   0   0   0   0   0   0   0   0   0   0   0  15 97 91 87 85 84 83 82 81 78 76 75 74 71 67 64 
   8   0   0   0   0   0   0   0   0   0   0   5   0   0   0   0   0   0   0   0   0   0   5   0   0   0   0   0   0   0   0  15 100 92 89 88 86 84 83 82 80 79 78 75 63 62 61 
   8   8   0   0   0   0   6   0   0   0   0   4  10   0   0   0   0   0   0   0   0   0   4   0   0   0   0   0   0   0   0  13 92 91 90 87 85 81 80 78 75 73 68 66 60 
   9   0   0   0   0   0   0   0   0   0   0   0   0   0   0   4  10   0   0   5   0   0   0   0   0   7   0   0   0   0   0  12 98 91 89 87 86 84 83 77 74 69 67 57 
   5   0   0   0   0   0   0   0   0   0   0   0  10   0   0   0   0   0   0   0   0   0   0   5   0   0   0   8   0   8   9  15 90 89 88 87 86 85 83 82 81 80 79 75 74 73 72 
   3   0   0   0  10   0   0   0   0   0  10   0   0   0   0   0   0   0   0   0   0   0   0   0   0   0   0   0   0   0   0  13 94 92 89 87 85 81 80 79 78 76 74 73 66 
   5   0   0   0   0   9   0   0   0   0   4   0   7   0   0   0   0   0   0   0   0   0   0   0   0   0   0   0   0   0   7  12 97 96 86 80 79 78 77 76 75 73 67 66 
   6   0   4   0   9   0   0   0   0   0   0   0   0   0   0   0   5   0   3   0   0   0   0   0   8   0   0   0   0   0   0  10 93 87 85 84 80 78 75 74 62 61 
   2   9   0   0   0   5   6   0   0   0   0   0   0   0   0   0   0   0   0   0   0   7   0   0   5   0   0   0   0   0   0  10 93 90 87 84 83 81 80 79 77 66 
   3   0   0   0   0   0   0   0   0   0   0   0   0   0   0   0   0   7   0   0   0   9   8   0   0   0   0   0   0   3   0   9 91 81 80 79 78 76 75 74 61 
   4   0   6   0   0   0   0   0   0   0   0   0   0   0   0   0   0   0   0   0   0   0   0   0   0   8   0   0   0   6   0  10 92 88 86 85 84 82 75 74 73 72 
   6   0   6   0   0   0   0   0   0   0   0   0   0   0   0   0   4   6   0   0   0   0   0   0   0   8   0   0   0   0   0  10 100 87 86 80 79 76 75 74 73 72 
   5   0   0   6   0   0   0   0   0   0   0   0   0   0   0   0   0   0   0   8   9   0   0   6   0   0   0   0   0   0   0   9 98 94 86 84 82 79 77 74 68 
   2   0   0   0   0   0   0   0   0   0   0   0   0   0   0   0   0   0   4   0   0   0   8   0   0   0   0   0   0   6   4   9 96 95 91 89 82 81 77 75 73 
   3   0   0   7   6   0   0   0   7   0   0   0   0   0   0   0   4   0   0   0   0   3   7   0   9   0   0   0   0   0   0   8 86 85 83 82 78 77 75 66 
   4   5   0   0   0   0   0   0   0   0   0   0   7   0   0   0   0   0   0   0   0   0   0   0   0   0   0   0   4   0   0   8 92 81 77 76 74 73 72 69 
   3   0   0   0   0   0   0   0   0   0   0   0   0   0   0   0   7   0   6   0   9   0   0   0   0   0   0   0   0   0   0   8 93 81 78 77 74 73 72 68 
   3   0   0   0   7   0   0   0   0   0   0   0   0   0   0   0   0   0   0   0   0   5   0  10   0   0   0   0   0   8   0   8 87 86 84 80 78 76 73 72 
   5   3   0   0   0   0   6   0   0   0   0   5   0   0   0   0   0   0   0   0   0   0   9   0   0   0   0   7   0   0   0   7 87 86 85 82 81 74 69 
   7   6   0   0   0   0   0   0   0   0   0   0   0   0   0   0   0   0   0   0   0   0   0   7   0   5   0   0   9   6   0   7 84 81 79 78 76 74 72 
   6   0   4   0   0   0   0   0   0   7   0   0   5   0   0   0   0   0   0   0   3   0   0   0   0   0   0   6   0   0   0   5 81 80 77 75 61 
   1   8   0   0   0   0   0   0   0   0   0   0   0   0   0   0   0   0   0   0   0   8   0   0   0   0   0   9   0   0   0   6 83 82 78 77 75 74 
   3   0   0   0   0   0   0   0   5   8   0   0   0   0   0   5   0   0   0   0   0   0   0   0   7   0   0   0   0   0   0   6 86 80 77 76 75 73 
   6   6   0   6   0   0   0   0   0   0   0   0   0   0   4   8   0   0   0   0   0   0   0   0   0   0   0  10   0   0   0   5 84 81 79 73 72 
   2   0   7   0   0   8   0   0   0   0   0   0   0   0   0   0   0   0   0   6   0   0   0   0   0   0   0   0   0   0   0   5 93 82 79 78 75 
   4   0   0   0   0   0   0   0   0   0   6   0   6   0   0   0   0   0   0   0   0   0   0   0   0   7   6   0   0   0   0   4 95 83 78 66 
   7   0   0   0   6   0   0   0   0   0   0   0   9  10  10   0   0   0   0   0   0   0   0   0   5   0   0   0   0   0   6   3 96 85 78 
   2   0   0   0   5   0   0   0   0   0   7   7   5   0   0   0   0   0   0   0   0   5   0   0   0   0   0   3   5   0   6   3 94 88 77 
   7   0   0   5  10   0   0   0   0   0   6   0   0   0   8   0   0   0   7   0   0   0   0   0   0   0   0   0   0   0   0   2 73 72 
   1   0   0   0   0   0   0   0   0   6   0   0   0   0   0   8   0   0   6   0   0   0   0   0   0   0   4   0   0   0   0   2 73 72 
   3   0   0   0   0   0   0   0   0   0   6   0   0   0   0   0   0   0   0   0   0   0   0   0   0   0   0   0   0   5   0   2 76 74 
   7   0   0   0   0   6   0   0   0   0   0   0   0   0   0   0   0   0   0   0   0   0   0   0   0   0   6   5   0   0   0   2 89 80 
  10   0   0   0   0   0   0   0   0   0   0   0   0   0   0   0   8   0   0   0   0   0   0   0   0   0   0   0   0   0   0   2 83 76 
   3   0   0   0   0   2   8   0   0   0  10   0   0   0   0   5   0   0  10   0   0   0   6   0   7   0   0   0   0   5   0   1 72 
   4   0   0   0   0   0   0   0   0   5   5   0   0   0   0   0   0  10   9  10   0   0   0   5   0   0   0   0   0   0   0   1 72 
   8   0   0   0   0   6   0   0   0   0   0   0   0   0   0   0   0   4   0   0   0   0  10   0   5   0   0   0   0   0   0   1 76 
   4   0   0   0   0   5   0   0   0   0   0   0   0   0  10   0   0   0   0   6  10   0   4   0   0   0   0   0   0   6   0   1 79 
   6   7   0   0   0   0   0   0   0   8   0   0   0   6   0   8   0   0   0   4   0   0   0   0   0   0   0   0   0   0   0   1 72 
   9   0   0   0   4   0   0   0   0   0   0   0   0   0   0   0   0   0   0   6   0   7   0   0   9   0   0   0   0   0   8   1 77 
   7   0   0   0   0   0   0   0   0   0   0   0   0  10   0   0   0   0   0   0   0   0   0   0   0   0   8   0   0   0   0   1 102
   5   0   0   0   0   0   0   0   0   0   2   0   0   4   0   0   0   0   0   0   0   0   0   0   0   0   6   0   0   6   0   1 102
  10   0   0   5   0   0   0   0   3   0   0   0   0   0   0   0   0   0   0   0   0   0   0   0   0   7   0   0   0   0   0   1 102
   2   0   0   0   0   0   0   0   0   0   0   0   0   0   0   0   0   0   6   0   0   0   0   9   0   0   0   0   0   0   0   1 102
  10   7   0   0   0   0   0   0   0   0   0   0   0   0   0   0   0   0   0   0   0   0   0   0   0   0   0   5   0   0   0   1 102
   7   0   0   0   6   9   0   0   0   7   0   0   0   0   0   0   4   6   0   0   0   0   0   0   0   0   0   0   0   0   0   1 102
   1   0   0   0   0   0   6   0   0   0   0   0   0   0   0   0   6   0   0   0   0   0   8   0   0   0   0   0   0   0   0   1 102
   9   0   0   0   9   0   0   0   0   0   0  10   0   0   0   0   0   5   0   0   0   0   0   0   0   0   0   0   0   0   0   1 102
   2   0   0   0   0   0   0   0   6   0   0   0   0   0   0   0   0   0   0   0   9   0   0   0   0   0   0   0   0   5   0   1 102
   8   0   0   0   0   0   0   0   0   0   0   5   4   0   0   0   4   8   0   0   0   0   0   0   0   0   0   0   7   0   7   1 102
   7   0   0   0   0   0   0   0   0   0  10   8   0   0   0   0   4   0   0   0   0   0   0   0   0   4   0  10   0   0   0   1 102
   5   0   0   0   0   7   0   0   0   0   3   0   0   0   0   0   0   0   0   0   3   0   0   0   0   0   0   0   0   0   0   1 102
   1   0   0   0   0   0   0   0   7   0   0   4   0   0   0   0   0   0   3   5   8   0   0   0   0   0   0   0   0   0   0   1 102
  10   5   8   0   0   0   7   0   7   0   0   0   0   0   0   0   8   0   0   0   0   0   4   0   7   0   0   8   0   0   0   1 102
   1   0   0   0   0   0   0   0   0   0   0   5   0   0   0   0   0   0   0   0   0   0   0   6   0   0   0   0   0   0   0   1 102
   9   0   0   0   0   0   0   5   0   0   0   0   7   0   0   0   0   0   0   7   0   0   0   0   0   0   0   0   0   0   0   1 102
   8   0   0   0   0   8   0   0   0   0   0   0   0   0   0   0   6   0   6   0   0   0   0   0   0   0   0   0   0   0   0   1 102
   9   0   0   0   6   0   0   0   0   0   0   0   0   0   0   0   0   0   0   0   0   0   0   0   4   0   0   0   7   0   0   1 102
   8   0   0   9   0   0   0   0   7   0   0   0   0   0   0   0   0   0   0   0   0   0   6   0   0   0   0   0   0   0   0   1 102
   5   5   0   0   0   0   0   0   0   0   8   3   0   0   0   0   0   0   0   0   0   0   0   0   0   0   0   0   0   8   6   1 102
   4   0   0   0   0   0   0   0   0   0   0   0   0   0   0   0   0   0   6   0   0   0   0   0   0   5   0   0   5   0   0   1 102
   7   0   9   7   0   0   0   0   0   0   0   6   0   0   0   0   0   0  10   0   0   0   0   0   0   0   0   0   0   0   4   1 102
   8   0   0   0   0   0   0   0   0   0   8   8   0   0   5   0   0   0   0   0   0   0   0   0   0   0   8   0   0   0   0   1 102
   8   0   0   0   0   0   0   0   0   0   0   0   0   0   0   0   0   0   0   0   0   0   0   0   0   0   6   0   0   0   0   1 102
   8   0   0   0   6   0   0   0   0   0   8   0  10   0   0   0   0   0   0   0   0   0   0   0   0   8   0   4   0   0   0   1 102
   6   0   0   0   6   0   0  10   0   0   3   0   0   0   0   0   8   0   0   0   0   0   0   0   0   0   0   4   0   0   0   1 102
   4   0   0   0   0   0   0   0   0   0   0   0   0   0   0   0   4   0   0   0   0   0   0   0   0   0   0   0   0   0   0   1 102
   3   0   0   0   0   0   0   0   0   0   0   0   0   0   0   7   0   0   8   0   0   0   0   0   0   0   0   0   0   0   0   1 102
   1   0   9   0   0   0   0   0   0   0   0   0   0   0   0   0   0   6   0   0   0   0   0   0   0   0   0   0   0   0   0   1 102
   5   0   0   0   0   0   0   0   0   0   0   0   0   0   0   0   0   0   0  10   0   0   7   6   0   0   0   0   0   0   0   1 102
   0   0   0   0   0   0   0   0   0   0   0   0   0   0   0   0   0   0   0   0   0   0   0   0   0   0   0   0   0   0   0   0 
